(set-logic ALL)
(set-option :produce-models true)
(declare-sort BoundSet 0)
(declare-sort UnboundSet 0)
(set-option :finite-model-find true)
(declare-fun IsAnAStudent (BoundSet) Bool)
(declare-fun CannotReceiveDGrade (BoundSet) Bool)
(assert (not (=> (exists ((a BoundSet)) (IsAnAStudent a)) (exists ((a BoundSet)) (CannotReceiveDGrade a)))))
(check-sat)
(get-model)